%%%mzn-stat: initTime=0.008922394
%%%mzn-stat: objective=250
%%%mzn-stat: nodes=23921
%%%mzn-stat: restarts=12
%%%mzn-stat: peakDepth=314
%%%mzn-stat: solveTime=3.895910777
%%%mzn-stat: variables=882
%%%mzn-stat: propagators=627
%%%mzn-stat: failures=13458
%%%mzn-stat: propagations=438017
%%%mzn-stat: nogoods=13458
%%%mzn-stat: AverageConflictSize=50.72083519096448
%%%mzn-stat: NumUnitNogoodsLearned=227
%%%mzn-stat: AverageLearnedNogoodLength=53.36275821072968
%%%mzn-stat: AverageBacktrackAmount=0
%%%mzn-stat: AverageLbd=12.131148759102393
%%%mzn-stat-end
maxleg = 250;
succ = array1d(1..50,[29, 11, 43, 31, 35, 48, 37, 2, 27, 26, 23, 3, 30, 41, 17, 47, 8, 50, 44, 34, 36, 14, 10, 45, 16, 6, 19, 15, 42, 12, 22, 24, 28, 21, 4, 25, 46, 1, 13, 9, 33, 39, 49, 18, 20, 5, 38, 32, 40, 7]);
% time elapsed: 5.43 s
----------
==========
% time elapsed: 5.43 s
%%%mzn-stat: initTime=0.008922394
%%%mzn-stat: objective=250
%%%mzn-stat: nodes=23926
%%%mzn-stat: restarts=12
%%%mzn-stat: peakDepth=314
%%%mzn-stat: solveTime=3.899709304
%%%mzn-stat: variables=882
%%%mzn-stat: propagators=627
%%%mzn-stat: failures=13464
%%%mzn-stat: propagations=438545
%%%mzn-stat: nogoods=13464
%%%mzn-stat: AverageConflictSize=50.716503267973856
%%%mzn-stat: NumUnitNogoodsLearned=228
%%%mzn-stat: AverageLearnedNogoodLength=53.359031491384435
%%%mzn-stat: AverageBacktrackAmount=0
%%%mzn-stat: AverageLbd=12.126633986928105
%%%mzn-stat-end
